\ LP format - for model browsing. Use MPS format to capture full model detail.
Minimize
  0 b_1_t_0 + 0 b_1_1_t_0 + 0 b_1_1_1_t_0 + 0 x_0 + 0 x_1 + 0 x_2 + 0 x_3
   + 0 y_1 + 0 y_2 + 0 y_3 + 0 y_4 + 0 b_1_1_2_t_0 + 0 y_0 + 0 b_2_t_0
Subject To
 R0: b_t_0 = 1
 R1: 4 b_1_1_1_1_t_0 - b_1_1_1_1_1_t_0 - b_1_1_1_1_1_t_1 - b_1_1_1_1_1_t_2
   - b_1_1_1_1_1_t_3 <= 0
 R2: - b_1_1_1_1_t_0 + b_1_1_1_1_1_t_0 + b_1_1_1_1_1_t_1 + b_1_1_1_1_1_t_2
   + b_1_1_1_1_1_t_3 <= 3
 R3: b_1_1_1_2_t_0 - b_1_1_1_2_1_t_1 - b_1_1_1_2_1_t_2 - b_1_1_1_2_1_t_3
   - b_1_1_1_2_1_t_4 <= 0
 R4: - 4 b_1_1_1_2_t_0 + b_1_1_1_2_1_t_1 + b_1_1_1_2_1_t_2
   + b_1_1_1_2_1_t_3 + b_1_1_1_2_1_t_4 <= 0
 R5: 4 b_1_1_2_1_t_0 - b_1_1_2_1_1_t_0 - b_1_1_2_1_1_t_1 - b_1_1_2_1_1_t_2
   - b_1_1_2_1_1_t_3 <= 0
 R6: - b_1_1_2_1_t_0 + b_1_1_2_1_1_t_0 + b_1_1_2_1_1_t_1 + b_1_1_2_1_1_t_2
   + b_1_1_2_1_1_t_3 <= 3
 R7: 5 b_1_1_2_2_t_0 - b_1_1_2_2_1_t_0 - b_1_1_2_2_1_t_1 - b_1_1_2_2_1_t_2
   - b_1_1_2_2_1_t_3 - b_1_1_2_2_1_t_4 <= 0
 R8: - b_1_1_2_2_t_0 + b_1_1_2_2_1_t_0 + b_1_1_2_2_1_t_1 + b_1_1_2_2_1_t_2
   + b_1_1_2_2_1_t_3 + b_1_1_2_2_1_t_4 <= 4
 R9: 5 b_1_2_t_0 - b_1_2_1_t_0 - b_1_2_1_t_1 - b_1_2_1_t_2 - b_1_2_1_t_3
   - b_1_2_1_t_4 <= 0
 R10: - b_1_2_t_0 + b_1_2_1_t_0 + b_1_2_1_t_1 + b_1_2_1_t_2 + b_1_2_1_t_3
   + b_1_2_1_t_4 <= 4
 R11: 4 b_2_1_t_0 - b_2_1_1_t_0 - b_2_1_1_t_1 - b_2_1_1_t_2 - b_2_1_1_t_3
   <= 0
 R12: - b_2_1_t_0 + b_2_1_1_t_0 + b_2_1_1_t_1 + b_2_1_1_t_2 + b_2_1_1_t_3
   <= 3
 R13: b_2_2_t_0 - b_2_2_1_t_1 - b_2_2_1_t_2 - b_2_2_1_t_3 - b_2_2_1_t_4
   <= 0
 R14: - 4 b_2_2_t_0 + b_2_2_1_t_1 + b_2_2_1_t_2 + b_2_2_1_t_3 + b_2_2_1_t_4
   <= 0
 GC0: b_1_1_1_1_1_t_0 = 1 -> - x_0 <= -5
 GC1: b_1_1_1_1_1_t_0 = 0 -> - x_0 >= -4.9999
 GC2: b_1_1_1_1_1_t_1 = 1 -> - x_1 <= -5
 GC3: b_1_1_1_1_1_t_1 = 0 -> - x_1 >= -4.9999
 GC4: b_1_1_1_1_1_t_2 = 1 -> - x_2 <= -5
 GC5: b_1_1_1_1_1_t_2 = 0 -> - x_2 >= -4.9999
 GC6: b_1_1_1_1_1_t_3 = 1 -> - x_3 <= -5
 GC7: b_1_1_1_1_1_t_3 = 0 -> - x_3 >= -4.9999
 GC8: b_1_1_1_2_1_t_1 = 1 -> y_1 <= 2.9999
 GC9: b_1_1_1_2_1_t_1 = 0 -> y_1 >= 3
 GC10: b_1_1_1_2_1_t_2 = 1 -> y_2 <= 2.9999
 GC11: b_1_1_1_2_1_t_2 = 0 -> y_2 >= 3
 GC12: b_1_1_1_2_1_t_3 = 1 -> y_3 <= 2.9999
 GC13: b_1_1_1_2_1_t_3 = 0 -> y_3 >= 3
 GC14: b_1_1_1_2_1_t_4 = 1 -> y_4 <= 2.9999
 GC15: b_1_1_1_2_1_t_4 = 0 -> y_4 >= 3
 GC17: b_1_1_2_1_1_t_0 = 1 -> - x_0 <= -5
 GC18: b_1_1_2_1_1_t_0 = 0 -> - x_0 >= -4.9999
 GC19: b_1_1_2_1_1_t_1 = 1 -> - x_1 <= -5
 GC20: b_1_1_2_1_1_t_1 = 0 -> - x_1 >= -4.9999
 GC21: b_1_1_2_1_1_t_2 = 1 -> - x_2 <= -5
 GC22: b_1_1_2_1_1_t_2 = 0 -> - x_2 >= -4.9999
 GC23: b_1_1_2_1_1_t_3 = 1 -> - x_3 <= -5
 GC24: b_1_1_2_1_1_t_3 = 0 -> - x_3 >= -4.9999
 GC25: b_1_1_2_2_1_t_0 = 1 -> y_0 <= 2
 GC26: b_1_1_2_2_1_t_0 = 0 -> y_0 >= 2.0001
 GC27: b_1_1_2_2_1_t_1 = 1 -> y_1 <= 2
 GC28: b_1_1_2_2_1_t_1 = 0 -> y_1 >= 2.0001
 GC29: b_1_1_2_2_1_t_2 = 1 -> y_2 <= 2
 GC30: b_1_1_2_2_1_t_2 = 0 -> y_2 >= 2.0001
 GC31: b_1_1_2_2_1_t_3 = 1 -> y_3 <= 2
 GC32: b_1_1_2_2_1_t_3 = 0 -> y_3 >= 2.0001
 GC33: b_1_1_2_2_1_t_4 = 1 -> y_4 <= 2
 GC34: b_1_1_2_2_1_t_4 = 0 -> y_4 >= 2.0001
 GC37: b_1_2_1_t_0 = 1 -> y_0 <= 2
 GC38: b_1_2_1_t_0 = 0 -> y_0 >= 2.0001
 GC39: b_1_2_1_t_1 = 1 -> y_1 <= 2
 GC40: b_1_2_1_t_1 = 0 -> y_1 >= 2.0001
 GC41: b_1_2_1_t_2 = 1 -> y_2 <= 2
 GC42: b_1_2_1_t_2 = 0 -> y_2 >= 2.0001
 GC43: b_1_2_1_t_3 = 1 -> y_3 <= 2
 GC44: b_1_2_1_t_3 = 0 -> y_3 >= 2.0001
 GC45: b_1_2_1_t_4 = 1 -> y_4 <= 2
 GC46: b_1_2_1_t_4 = 0 -> y_4 >= 2.0001
 GC48: b_2_1_1_t_0 = 1 -> - x_0 <= -5
 GC49: b_2_1_1_t_0 = 0 -> - x_0 >= -4.9999
 GC50: b_2_1_1_t_1 = 1 -> - x_1 <= -5
 GC51: b_2_1_1_t_1 = 0 -> - x_1 >= -4.9999
 GC52: b_2_1_1_t_2 = 1 -> - x_2 <= -5
 GC53: b_2_1_1_t_2 = 0 -> - x_2 >= -4.9999
 GC54: b_2_1_1_t_3 = 1 -> - x_3 <= -5
 GC55: b_2_1_1_t_3 = 0 -> - x_3 >= -4.9999
 GC56: b_2_2_1_t_1 = 1 -> y_1 <= 2.9999
 GC57: b_2_2_1_t_1 = 0 -> y_1 >= 3
 GC58: b_2_2_1_t_2 = 1 -> y_2 <= 2.9999
 GC59: b_2_2_1_t_2 = 0 -> y_2 >= 3
 GC60: b_2_2_1_t_3 = 1 -> y_3 <= 2.9999
 GC61: b_2_2_1_t_3 = 0 -> y_3 >= 3
 GC62: b_2_2_1_t_4 = 1 -> y_4 <= 2.9999
 GC63: b_2_2_1_t_4 = 0 -> y_4 >= 3
Bounds
 -10000 <= x_0 <= 10000
 -10000 <= x_1 <= 10000
 -10000 <= x_2 <= 10000
 -10000 <= x_3 <= 10000
 -10000 <= y_1 <= 10000
 -10000 <= y_2 <= 10000
 -10000 <= y_3 <= 10000
 -10000 <= y_4 <= 10000
 -10000 <= y_0 <= 10000
Binaries
 b_t_0 b_1_t_0 b_1_1_t_0 b_1_1_1_t_0 b_1_1_1_1_t_0 b_1_1_1_1_1_t_0
 b_1_1_1_1_1_t_1 b_1_1_1_1_1_t_2 b_1_1_1_1_1_t_3 b_1_1_1_2_t_0
 b_1_1_1_2_1_t_1 b_1_1_1_2_1_t_2 b_1_1_1_2_1_t_3 b_1_1_1_2_1_t_4
 b_1_1_2_t_0 b_1_1_2_1_t_0 b_1_1_2_1_1_t_0 b_1_1_2_1_1_t_1 b_1_1_2_1_1_t_2
 b_1_1_2_1_1_t_3 b_1_1_2_2_t_0 b_1_1_2_2_1_t_0 b_1_1_2_2_1_t_1
 b_1_1_2_2_1_t_2 b_1_1_2_2_1_t_3 b_1_1_2_2_1_t_4 b_1_2_t_0 b_1_2_1_t_0
 b_1_2_1_t_1 b_1_2_1_t_2 b_1_2_1_t_3 b_1_2_1_t_4 b_2_t_0 b_2_1_t_0
 b_2_1_1_t_0 b_2_1_1_t_1 b_2_1_1_t_2 b_2_1_1_t_3 b_2_2_t_0 b_2_2_1_t_1
 b_2_2_1_t_2 b_2_2_1_t_3 b_2_2_1_t_4
General Constraints
 GC16: b_1_1_1_t_0 = AND ( b_1_1_1_1_t_0 , b_1_1_1_2_t_0 )
 GC35: b_1_1_2_t_0 = AND ( b_1_1_2_1_t_0 , b_1_1_2_2_t_0 )
 GC36: b_1_1_t_0 = OR ( b_1_1_1_t_0 , b_1_1_2_t_0 )
 GC47: b_1_t_0 = AND ( b_1_1_t_0 , b_1_2_t_0 )
 GC64: b_2_t_0 = AND ( b_2_1_t_0 , b_2_2_t_0 )
 GC65: b_t_0 = AND ( b_1_t_0 , b_2_t_0 )
End
